(set-logic ALL)
(declare-const BAV1 Bool)
(declare-const BAV2 Bool)
(declare-const GEN1 Int)
(declare-const i15 Int)
(assert (= true true true (not (= i15 GEN1))))
(assert (= BAV1 (= true true true (not (= i15 GEN1)))))
(assert (= BAV2 (= i15 GEN1)))
(check-sat)
(get-model)
(exit)